c SSAT file for PBN benchmarks/iscas85/c17_distill written by probABC
p cnf 33 66
r 0.500000 1 0
r 0.500000 2 0
r 0.500000 3 0
r 0.500000 4 0
r 0.500000 5 0
r 0.125000 9 0
r 0.125000 14 0
r 0.125000 20 0
r 0.125000 25 0
r 0.125000 30 0
e 8 0
e 10 0
e 11 0
e 12 0
e 13 0
e 15 0
e 16 0
e 17 0
e 18 0
e 19 0
e 21 0
e 22 0
e 23 0
e 24 0
e 26 0
e 27 0
e 28 0
e 29 0
e 31 0
e 32 0
e 33 0
e 6 0
e 7 0
8 -1 -3 0
-8 1 0
-8 3 0
10 8 -9 0
-10 -8 0
-10 9 0
11 -8 9 0
-11 8 0
-11 -9 0
12 10 11 0
-12 -10 0
-12 -11 0
13 -3 -4 0
-13 3 0
-13 4 0
15 13 -14 0
-15 -13 0
-15 14 0
16 -13 14 0
-16 13 0
-16 -14 0
17 15 16 0
-17 -15 0
-17 -16 0
18 -2 -17 0
-18 2 0
-18 17 0
19 -12 18 0
-19 12 0
-19 -18 0
21 19 -20 0
-21 -19 0
-21 20 0
22 -19 20 0
-22 19 0
-22 -20 0
23 21 22 0
-23 -21 0
-23 -22 0
24 -5 -17 0
-24 5 0
-24 17 0
26 24 -25 0
-26 -24 0
-26 25 0
27 -24 25 0
-27 24 0
-27 -25 0
28 26 27 0
-28 -26 0
-28 -27 0
29 18 -28 0
-29 -18 0
-29 28 0
31 29 -30 0
-31 -29 0
-31 30 0
32 -29 30 0
-32 29 0
-32 -30 0
33 31 32 0
-33 -31 0
-33 -32 0
7 -33 0
-7 33 0
7 0
